data;
set K:= K1 K2 K3 K4 K5 K6 K7 ;

set F:= F1 F2 ;

set Q:= Q1 Q2 ;

param T:= 45;
param V: 
	K1  K2  K3  K4  K5  K6  K7  :=
Q1	1   1   1   1   0   0   0   
Q2	0   0   0   0   1   1   1   
; # if resorce k is of type q

param TF:= 
K1 6
K2 6
K3 6
K4 6
K5 12
K6 12
K7 12
; # number of continuous time slots resource can fly

param TR:= 
K1 2
K2 2
K3 2
K4 2
K5 4
K6 4
K7 4
; #  number of continuous time slots resource k needs to rest between flights

param P:= 
K1 36
K2 36
K3 36
K4 36
K5 36
K6 36
K7 36
; #  number of continuous time slots a pilot can be present including rest times for resource k 

param N:= 
K1 4
K2 4
K3 4
K4 4
K5 2
K6 2
K7 1
; # max number of flights resource k can fly in the total time period

param A: 
	K1  K2  K3  K4  K5  K6  K7  :=
1	1   1   1   1   1   1   0   
2	1   1   1   1   1   1   0   
3	1   1   1   1   1   1   0   
4	1   1   1   1   1   1   0   
5	1   1   1   1   1   1   0   
6	1   1   1   1   1   1   0   
7	1   1   1   1   1   1   0   
8	1   1   1   1   1   1   0   
9	1   1   1   1   1   1   0   
10	1   1   1   1   1   1   0   
11	1   1   1   1   1   1   0   
12	1   1   1   1   1   1   1   
13	1   1   1   1   1   1   1   
14	1   1   1   1   1   1   1   
15	1   1   1   1   1   1   1   
16	1   1   1   1   1   1   1   
17	1   1   1   1   1   1   1   
18	1   1   1   1   1   1   1   
19	1   1   1   1   1   1   1   
20	1   1   1   1   1   1   1   
21	1   1   1   1   1   1   1   
22	1   1   1   1   1   1   1   
23	1   1   1   1   1   1   1   
24	1   1   1   1   1   1   1   
25	1   1   1   1   1   1   1   
26	1   1   1   1   1   1   1   
27	1   1   1   1   1   1   1   
28	1   1   1   1   1   1   1   
29	1   1   1   1   1   1   1   
30	1   1   1   1   1   1   1   
31	1   1   1   1   1   1   1   
32	1   1   1   1   1   1   1   
33	1   1   1   1   1   1   1   
34	1   1   1   1   1   1   1   
35	1   1   1   1   1   1   1   
36	1   1   1   1   1   1   1   
37	1   1   1   1   1   1   1   
38	1   1   1   1   1   1   1   
39	1   1   1   1   1   1   1   
40	1   1   1   1   1   1   1   
41	1   1   1   1   1   1   1   
42	1   1   1   1   1   1   1   
43	1   1   1   1   1   1   1   
44	1   1   1   1   1   1   1   
45	1   1   1   1   1   1   1   
; # availability of resorce k in time slot t

param B: 
	F1  F2  :=
Q1	0   0   
Q2	0   0   
; # if front f requires resources of type q

param U: 
	F1  F2  :=
K1	0   0   
K2	0   0   
K3	0   0   
K4	0   0   
K5	1   1   
K6	0   0   
K7	2   2   
; # transit time of resource

param C:= 
K1 900
K2 900
K3 1500
K4 4500
K5 5500
K6 5500
K7 5500
; #  water capacity of resource k

param S:= 
F1 10
F2 9
; # max number of resources that can fly at front f in the same time slot

param D:= 

[*,*,F1 ]:  K1    K2    K3    K4    K5    K6    K7    :=
1           1.42  1.42  1.42  1.13  0.85  0.85  0.85  
2           1.42  1.42  1.42  1.13  0.85  0.85  0.85  
3           1.42  1.42  1.42  1.13  0.85  0.85  0.85  
4           1.42  1.42  1.42  1.13  0.85  0.85  0.85  
5           1.42  1.42  1.42  1.13  0.85  0.85  0.85  
6           1.42  1.42  1.42  1.13  0.85  0.85  0.85  
7           1.42  1.42  1.42  1.13  0.85  0.85  0.85  
8           1.42  1.42  1.42  1.13  0.85  0.85  0.85  
9           1.42  1.42  1.42  1.13  0.85  0.85  0.85  
10          1.42  1.42  1.42  1.13  0.85  0.85  0.85  
11          1.42  1.42  1.42  1.13  0.85  0.85  0.85  
12          1.42  1.42  1.42  1.13  0.85  0.85  0.85  
13          1.42  1.42  1.42  1.13  0.85  0.85  0.85  
14          1.42  1.42  1.42  1.13  0.85  0.85  0.85  
15          1.42  1.42  1.42  1.13  0.85  0.85  0.85  
16          1.42  1.42  1.42  1.13  0.85  0.85  0.85  
17          1.42  1.42  1.42  1.13  0.85  0.85  0.85  
18          1.42  1.42  1.42  1.13  0.85  0.85  0.85  
19          1.42  1.42  1.42  1.13  0.85  0.85  0.85  
20          1.42  1.42  1.42  1.13  0.85  0.85  0.85  
21          1.42  1.42  1.42  1.13  0.85  0.85  0.85  
22          1.42  1.42  1.42  1.13  0.85  0.85  0.85  
23          1.42  1.42  1.42  1.13  0.85  0.85  0.85  
24          1.42  1.42  1.42  1.13  0.85  0.85  0.85  
25          1.35  1.35  1.35  1.07  0.81  0.81  0.81  
26          1.35  1.35  1.35  1.07  0.81  0.81  0.81  
27          1.35  1.35  1.35  1.07  0.81  0.81  0.81  
28          1.35  1.35  1.35  1.07  0.81  0.81  0.81  
29          1.35  1.35  1.35  1.07  0.81  0.81  0.81  
30          1.35  1.35  1.35  1.07  0.81  0.81  0.81  
31          1.35  1.35  1.35  1.07  0.81  0.81  0.81  
32          1.35  1.35  1.35  1.07  0.81  0.81  0.81  
33          1.35  1.35  1.35  1.07  0.81  0.81  0.81  
34          1.42  1.42  1.42  1.13  0.85  0.85  0.85  
35          1.42  1.42  1.42  1.13  0.85  0.85  0.85  
36          1.42  1.42  1.42  1.13  0.85  0.85  0.85  
37          1.42  1.42  1.42  1.13  0.85  0.85  0.85  
38          1.42  1.42  1.42  1.13  0.85  0.85  0.85  
39          1.42  1.42  1.42  1.13  0.85  0.85  0.85  
40          1.42  1.42  1.42  1.13  0.85  0.85  0.85  
41          1.42  1.42  1.42  1.13  0.85  0.85  0.85  
42          1.42  1.42  1.42  1.13  0.85  0.85  0.85  
43          1.42  1.42  1.42  1.13  0.85  0.85  0.85  
44          1.42  1.42  1.42  1.13  0.85  0.85  0.85  
45          1.42  1.42  1.42  1.13  0.85  0.85  0.85  

[*,*,F2 ]:  K1    K2    K3    K4    K5    K6    K7    :=
1           1.74  1.74  1.74  1.38  1.04  1.04  1.04  
2           1.74  1.74  1.74  1.38  1.04  1.04  1.04  
3           1.74  1.74  1.74  1.38  1.04  1.04  1.04  
4           1.74  1.74  1.74  1.38  1.04  1.04  1.04  
5           1.74  1.74  1.74  1.38  1.04  1.04  1.04  
6           1.74  1.74  1.74  1.38  1.04  1.04  1.04  
7           1.74  1.74  1.74  1.38  1.04  1.04  1.04  
8           1.74  1.74  1.74  1.38  1.04  1.04  1.04  
9           1.74  1.74  1.74  1.38  1.04  1.04  1.04  
10          1.74  1.74  1.74  1.38  1.04  1.04  1.04  
11          1.74  1.74  1.74  1.38  1.04  1.04  1.04  
12          1.74  1.74  1.74  1.38  1.04  1.04  1.04  
13          1.74  1.74  1.74  1.38  1.04  1.04  1.04  
14          1.74  1.74  1.74  1.38  1.04  1.04  1.04  
15          1.74  1.74  1.74  1.38  1.04  1.04  1.04  
16          1.74  1.74  1.74  1.38  1.04  1.04  1.04  
17          1.74  1.74  1.74  1.38  1.04  1.04  1.04  
18          1.74  1.74  1.74  1.38  1.04  1.04  1.04  
19          1.74  1.74  1.74  1.38  1.04  1.04  1.04  
20          1.74  1.74  1.74  1.38  1.04  1.04  1.04  
21          1.74  1.74  1.74  1.38  1.04  1.04  1.04  
22          1.74  1.74  1.74  1.38  1.04  1.04  1.04  
23          1.74  1.74  1.74  1.38  1.04  1.04  1.04  
24          1.74  1.74  1.74  1.38  1.04  1.04  1.04  
25          1.65  1.65  1.65  1.31  0.99  0.99  0.99  
26          1.65  1.65  1.65  1.31  0.99  0.99  0.99  
27          1.65  1.65  1.65  1.31  0.99  0.99  0.99  
28          1.65  1.65  1.65  1.31  0.99  0.99  0.99  
29          1.65  1.65  1.65  1.31  0.99  0.99  0.99  
30          1.65  1.65  1.65  1.31  0.99  0.99  0.99  
31          1.65  1.65  1.65  1.31  0.99  0.99  0.99  
32          1.65  1.65  1.65  1.31  0.99  0.99  0.99  
33          1.65  1.65  1.65  1.31  0.99  0.99  0.99  
34          1.74  1.74  1.74  1.38  1.04  1.04  1.04  
35          1.74  1.74  1.74  1.38  1.04  1.04  1.04  
36          1.74  1.74  1.74  1.38  1.04  1.04  1.04  
37          1.74  1.74  1.74  1.38  1.04  1.04  1.04  
38          1.74  1.74  1.74  1.38  1.04  1.04  1.04  
39          1.74  1.74  1.74  1.38  1.04  1.04  1.04  
40          1.74  1.74  1.74  1.38  1.04  1.04  1.04  
41          1.74  1.74  1.74  1.38  1.04  1.04  1.04  
42          1.74  1.74  1.74  1.38  1.04  1.04  1.04  
43          1.74  1.74  1.74  1.38  1.04  1.04  1.04  
44          1.74  1.74  1.74  1.38  1.04  1.04  1.04  
45          1.74  1.74  1.74  1.38  1.04  1.04  1.04  
; # downloads resource k can do at front f in time t if intermediate time slot

param E:= 

[*,*,F1 ]:  K1    K2    K3    K4    K5    K6    K7    :=
1           0.06  0.72  0.55  0.54  0.02  0.24  0.13  
2           0.06  0.72  0.55  0.54  0.02  0.24  0.13  
3           0.06  0.72  0.55  0.54  0.02  0.24  0.13  
4           0.06  0.72  0.55  0.54  0.02  0.24  0.13  
5           0.06  0.72  0.55  0.54  0.02  0.24  0.13  
6           0.06  0.72  0.55  0.54  0.02  0.24  0.13  
7           0.06  0.72  0.55  0.54  0.02  0.24  0.13  
8           0.06  0.72  0.55  0.54  0.02  0.24  0.13  
9           0.06  0.72  0.55  0.54  0.02  0.24  0.13  
10          0.06  0.72  0.55  0.54  0.02  0.24  0.13  
11          0.06  0.72  0.55  0.54  0.02  0.24  0.13  
12          0.06  0.72  0.55  0.54  0.02  0.24  0.13  
13          0.06  0.72  0.55  0.54  0.02  0.24  0.13  
14          0.06  0.72  0.55  0.54  0.02  0.24  0.13  
15          0.06  0.72  0.55  0.54  0.02  0.24  0.13  
16          0.06  0.72  0.55  0.54  0.02  0.24  0.13  
17          0.06  0.72  0.55  0.54  0.02  0.24  0.13  
18          0.06  0.72  0.55  0.54  0.02  0.24  0.13  
19          0.06  0.72  0.55  0.54  0.02  0.24  0.13  
20          0.06  0.72  0.55  0.54  0.02  0.24  0.13  
21          0.06  0.72  0.55  0.54  0.02  0.24  0.13  
22          0.06  0.72  0.55  0.54  0.02  0.24  0.13  
23          0.06  0.72  0.55  0.54  0.02  0.24  0.13  
24          0.06  0.72  0.55  0.54  0.02  0.24  0.13  
25          0.05  0.69  0.53  0.52  0.02  0.23  0.12  
26          0.05  0.69  0.53  0.52  0.02  0.23  0.12  
27          0.05  0.69  0.53  0.52  0.02  0.23  0.12  
28          0.05  0.69  0.53  0.52  0.02  0.23  0.12  
29          0.05  0.69  0.53  0.52  0.02  0.23  0.12  
30          0.05  0.69  0.53  0.52  0.02  0.23  0.12  
31          0.05  0.69  0.53  0.52  0.02  0.23  0.12  
32          0.05  0.69  0.53  0.52  0.02  0.23  0.12  
33          0.05  0.69  0.53  0.52  0.02  0.23  0.12  
34          0.06  0.72  0.55  0.54  0.02  0.24  0.13  
35          0.06  0.72  0.55  0.54  0.02  0.24  0.13  
36          0.06  0.72  0.55  0.54  0.02  0.24  0.13  
37          0.06  0.72  0.55  0.54  0.02  0.24  0.13  
38          0.06  0.72  0.55  0.54  0.02  0.24  0.13  
39          0.06  0.72  0.55  0.54  0.02  0.24  0.13  
40          0.06  0.72  0.55  0.54  0.02  0.24  0.13  
41          0.06  0.72  0.55  0.54  0.02  0.24  0.13  
42          0.06  0.72  0.55  0.54  0.02  0.24  0.13  
43          0.06  0.72  0.55  0.54  0.02  0.24  0.13  
44          0.06  0.72  0.55  0.54  0.02  0.24  0.13  
45          0.06  0.72  0.55  0.54  0.02  0.24  0.13  

[*,*,F2 ]:  K1    K2    K3    K4    K5    K6    K7    :=
1           0.09  0.90  0.64  0.62  0.03  0.27  0.12  
2           0.09  0.90  0.64  0.62  0.03  0.27  0.12  
3           0.09  0.90  0.64  0.62  0.03  0.27  0.12  
4           0.09  0.90  0.64  0.62  0.03  0.27  0.12  
5           0.09  0.90  0.64  0.62  0.03  0.27  0.12  
6           0.09  0.90  0.64  0.62  0.03  0.27  0.12  
7           0.09  0.90  0.64  0.62  0.03  0.27  0.12  
8           0.09  0.90  0.64  0.62  0.03  0.27  0.12  
9           0.09  0.90  0.64  0.62  0.03  0.27  0.12  
10          0.09  0.90  0.64  0.62  0.03  0.27  0.12  
11          0.09  0.90  0.64  0.62  0.03  0.27  0.12  
12          0.09  0.90  0.64  0.62  0.03  0.27  0.12  
13          0.09  0.90  0.64  0.62  0.03  0.27  0.12  
14          0.09  0.90  0.64  0.62  0.03  0.27  0.12  
15          0.09  0.90  0.64  0.62  0.03  0.27  0.12  
16          0.09  0.90  0.64  0.62  0.03  0.27  0.12  
17          0.09  0.90  0.64  0.62  0.03  0.27  0.12  
18          0.09  0.90  0.64  0.62  0.03  0.27  0.12  
19          0.09  0.90  0.64  0.62  0.03  0.27  0.12  
20          0.09  0.90  0.64  0.62  0.03  0.27  0.12  
21          0.09  0.90  0.64  0.62  0.03  0.27  0.12  
22          0.09  0.90  0.64  0.62  0.03  0.27  0.12  
23          0.09  0.90  0.64  0.62  0.03  0.27  0.12  
24          0.09  0.90  0.64  0.62  0.03  0.27  0.12  
25          0.08  0.86  0.61  0.59  0.03  0.26  0.12  
26          0.08  0.86  0.61  0.59  0.03  0.26  0.12  
27          0.08  0.86  0.61  0.59  0.03  0.26  0.12  
28          0.08  0.86  0.61  0.59  0.03  0.26  0.12  
29          0.08  0.86  0.61  0.59  0.03  0.26  0.12  
30          0.08  0.86  0.61  0.59  0.03  0.26  0.12  
31          0.08  0.86  0.61  0.59  0.03  0.26  0.12  
32          0.08  0.86  0.61  0.59  0.03  0.26  0.12  
33          0.08  0.86  0.61  0.59  0.03  0.26  0.12  
34          0.09  0.90  0.64  0.62  0.03  0.27  0.12  
35          0.09  0.90  0.64  0.62  0.03  0.27  0.12  
36          0.09  0.90  0.64  0.62  0.03  0.27  0.12  
37          0.09  0.90  0.64  0.62  0.03  0.27  0.12  
38          0.09  0.90  0.64  0.62  0.03  0.27  0.12  
39          0.09  0.90  0.64  0.62  0.03  0.27  0.12  
40          0.09  0.90  0.64  0.62  0.03  0.27  0.12  
41          0.09  0.90  0.64  0.62  0.03  0.27  0.12  
42          0.09  0.90  0.64  0.62  0.03  0.27  0.12  
43          0.09  0.90  0.64  0.62  0.03  0.27  0.12  
44          0.09  0.90  0.64  0.62  0.03  0.27  0.12  
45          0.09  0.90  0.64  0.62  0.03  0.27  0.12  
; # downloads resource k can do at front f in time t if starting or ending flight

param W: 
	F1        F2        :=
1	161.75    161.75    
2	614.64    614.64    
3	614.64    614.64    
4	614.64    614.64    
5	614.64    614.64    
6	614.64    614.64    
7	614.64    614.64    
8	614.64    614.64    
9	614.64    614.64    
10	614.64    614.64    
11	614.64    614.64    
12	614.64    614.64    
13	614.64    614.64    
14	614.64    614.64    
15	614.64    614.64    
16	614.64    614.64    
17	614.64    614.64    
18	614.64    614.64    
19	711.69    711.69    
20	711.69    711.69    
21	711.69    711.69    
22	711.69    711.69    
23	711.69    711.69    
24	711.69    711.69    
25	711.69    711.69    
26	711.69    711.69    
27	711.69    711.69    
28	711.69    711.69    
29	711.69    711.69    
30	711.69    711.69    
31	711.69    711.69    
32	711.69    711.69    
33	711.69    711.69    
34	711.69    711.69    
35	614.64    614.64    
36	614.64    614.64    
37	614.64    614.64    
38	614.64    614.64    
39	614.64    614.64    
40	614.64    614.64    
41	614.64    614.64    
42	614.64    614.64    
43	614.64    614.64    
44	614.64    614.64    
45	161.75    161.75    
; # water needed at front f in time slot t

param M := 100000000; 

param a1:= 10000000;

param a2:= 100;

param a3:= 0.0001;
